NAME : problems/30-tsp/instance-36.tsp
COMMENT : No Comment
TYPE : TSP
DIMENSION: 30
EDGE_WEIGHT_TYPE : EUC_2D
NODE_COORD_SECTION
1 36 2474 
2 4134 6450 
3 3455 9085 
4 8169 9538 
5 190 8843 
6 818 4944 
7 7046 6999 
8 4424 1830 
9 9950 2841 
10 5820 6823 
11 6973 3290 
12 3638 2206 
13 5812 5164 
14 9052 8926 
15 7313 2218 
16 7536 993 
17 2315 5344 
18 1506 7258 
19 6161 7218 
20 6744 6046 
21 6994 7055 
22 6971 5202 
23 6935 6804 
24 6491 2279 
25 5556 6029 
26 7433 6683 
27 2950 1183 
28 1142 8979 
29 7616 3467 
30 1617 5174 
EOF
